results/res_prop_muc/res_Cimatti_mathsat_cores/QF_UF/SEQ017_size4.smt.smt2.out

real	0m0.185s
user	0m0.124s
sys	0m0.015s
