results/res_prop_muc/res_Cimatti_mathsat_cores/QF_UF/SEQ017_size4.smt.smt2.res
unsat
( _c0
  _c10
  _c100
  _c102
  _c103
  _c104
  _c106
  _c107
  _c11
  _c110
  _c111
  _c112
  _c120
  _c123
  _c126
  _c127
  _c128
  _c13
  _c132
  _c14
  _c142
  _c143
  _c147
  _c190
  _c191
  _c192
  _c193
  _c195
  _c196
  _c197
  _c198
  _c20
  _c200
  _c201
  _c202
  _c203
  _c205
  _c206
  _c207
  _c208
  _c210
  _c211
  _c212
  _c213
  _c219
  _c220
  _c221
  _c223
  _c224
  _c225
  _c226
  _c228
  _c229
  _c230
  _c231
  _c233
  _c234
  _c235
  _c236
  _c244
  _c245
  _c247
  _c249
  _c251
  _c252
  _c256
  _c257
  _c265
  _c268
  _c271
  _c273
  _c277
  _c287
  _c288
  _c292
  _c303
  _c304
  _c309
  _c31
  _c311
  _c313
  _c314
  _c319
  _c32
  _c320
  _c321
  _c324
  _c325
  _c329
  _c33
  _c340
  _c341
  _c342
  _c343
  _c344
  _c347
  _c36
  _c37
  _c39
  _c44
  _c49
  _c52
  _c53
  _c54
  _c58
  _c59
  _c60
  _c70
  _c74
  _c75
  _c76
  _c77
  _c79
  _c82
  _c89
  _c9
  _c90
  _c91
  _c92
  _c98
  _c99 )
